//Number of items      		
161
//Bin Capacity      
1000
//Known Best Solution  		
64
//Weight of Item
     698         1
     696         1
     695         1
     694         1
     690         1
     686         1
     685         1
     681         2
     675         1
     672         1
     671         2
     670         1
     667         1
     665         1
     660         1
     656         1
     647         1
     645         2
     639         1
     634         1
     622         2
     617         1
     614         1
     610         1
     598         1
     596         1
     592         1
     588         1
     587         1
     586         1
     585         1
     582         1
     575         1
     574         1
     572         1
     558         1
     557         1
     555         1
     550         2
     531         1
     526         1
     523         1
     516         1
     515         1
     514         1
     508         1
     505         1
     498         1
     497         2
     496         1
     495         2
     492         1
     485         1
     481         1
     475         1
     472         1
     468         1
     467         1
     466         2
     465         1
     453         1
     447         1
     446         1
     440         1
     435         2
     433         1
     423         1
     416         1
     415         1
     413         1
     409         1
     399         1
     391         1
     389         1
     388         1
     385         1
     379         1
     377         1
     374         1
     373         1
     372         1
     367         1
     361         1
     359         1
     358         1
     351         1
     346         1
     339         1
     333         1
     327         1
     325         2
     322         1
     320         1
     312         1
     305         1
     298         1
     294         1
     293         1
     291         1
     283         2
     279         1
     274         1
     270         1
     256         1
     252         1
     251         1
     243         1
     240         2
     229         1
     218         1
     216         2
     215         1
     209         1
     205         1
     195         1
     193         1
     189         1
     186         1
     178         1
     170         1
     169         1
     164         1
     162         1
     160         1
     157         1
     152         1
     147         1
     139         1
     137         1
     131         1
     117         1
     112         1
     109         1
     106         1
     105         1
     102         2
      97         2
      95         1
      91         1
      84         1
      83         1
      78         1
      69         1
      68         1
      67         1
      61         2
      58         1
      54         1
      51         1
      44         1
      36         2
      35         1
      26         1
      24         2
      21         1
      20         2
      16         1
      15         1
      12         1
       4         1
       1         1